DIMENSION: 8
EDGE_WEIGHT_TYPE: EXPLICIT
EDGE_WEIGHT_FORMAT: FULL_MATRIX
EDGE_WEIGHT_SECTION:
32767 3 98 52 27 97 3 20 
3 32767 32767 42 96 32767 91 15 
98 32767 32767 22 70 13 32767 32767 
52 42 22 32767 32767 11 29 78 
27 96 70 32767 32767 73 32767 4 
97 32767 13 11 73 32767 32767 89 
3 91 32767 29 32767 32767 32767 44 
20 15 32767 78 4 89 44 32767 
EOF